db/inputs/2396127086220993241971815211495614014.smt2
(set-logic QF_FP)
(declare-const x0 (_ FloatingPoint 8 24))
(declare-const x1 (_ FloatingPoint 8 24))
(declare-const x2 (_ FloatingPoint 8 24))
(declare-const x3 (_ FloatingPoint 8 24))
(declare-const x4 (_ FloatingPoint 8 24))
(declare-const x5 (_ FloatingPoint 8 24))
(declare-const x6 (_ FloatingPoint 8 24))
(declare-const x7 (_ FloatingPoint 8 24))
(declare-const x8 (_ FloatingPoint 8 24))
(declare-const x9 (_ FloatingPoint 8 24))
(declare-const x10 (_ FloatingPoint 8 24))
(declare-const x11 (_ FloatingPoint 8 24))
(declare-const x12 (_ FloatingPoint 8 24))
(declare-const x13 (_ FloatingPoint 8 24))
(declare-const x14 (_ FloatingPoint 8 24))
(declare-const x15 (_ FloatingPoint 8 24))
(declare-const x16 (_ FloatingPoint 8 24))
(declare-const x17 (_ FloatingPoint 8 24))
(declare-const x18 (_ FloatingPoint 8 24))
(assert (fp.leq (fp.sub RNE x14 x7) (fp.sub RNE x9 x2)))
(assert (fp.eq (fp.mul RNE x18 x4) (fp.sub RNE x13 x4)))
(assert (fp.eq (fp.add RNE x17 x11) (fp.sub RNE x1 x8)))
(assert (fp.leq (fp.sub RNE x16 x12) (fp.add RNE x13 x3)))
(assert (fp.lt (fp.div RNE x4 x4) (fp.add RNE x11 x13)))
(assert (fp.leq (fp.add RNE x13 x8) (fp.add RNE x17 x16)))
(assert (fp.eq (fp.add RNE x13 x12) (fp.neg x10)))
(assert (fp.eq (fp.mul RNE x17 x2) (fp.mul RNE x4 x1)))
(assert (fp.gt (fp.sub RNE x2 x10) (fp.add RNE x1 x12)))
(assert (fp.lt (fp.add RNE x5 x17) (fp.sub RNE x1 x4)))
(assert (fp.leq (fp.add RNE x17 x5) (fp.neg x2)))
(assert (fp.eq (fp.sub RNE x12 x0) (fp.neg x18)))
(check-sat)
