db/data/2396127086220993241971815211495614014.z3.out
sat
-------------------
19.783326035
